(set-info :smt-lib-version 2.6)
(set-logic QF_S)
(set-info :source |
Generated by: Murphy Berzish, Mitja Kulczynski, Federico Mora, Florin Manea, Joel Day, Dirk Nowotka, Vijay Ganesh, Zhengyang Lu
Generated on: 2020-10-01
Description: Translated from a collection of real-world regex queries, AutomataArk, collected by Loris D’Antoni and Fang Wang: https://github.com/lorisdanto/automatark
Application: Evaluate solvers on real-world regex queries
Target solver: Z3str3RE, CVC4, OSTRICH, Z3seq, Z3str3, Z3-Trau
Publications: Berzish, M., Kulczynski, M., Mora, F., Manea, F., Day, J. D., Nowotka, D., & Ganesh, V. (2021, July). An SMT solver for regular expressions and linear arithmetic over string length. In CAV 2021.
|)
(set-info :license "https://creativecommons.org/licenses/by/4.0/")
(set-info :category "industrial")
(set-info :status sat)

(declare-const X String)
(assert (not (str.in_re X (str.to_re "User-Agent:twfofrfzlugq/eve.qduuid=ppcdomain.co.ukGuardedReferer:readyLOGUser-Agent:\u{a}"))))
(assert (not (str.in_re X (re.union (str.to_re "script") (str.to_re "<") (str.to_re ">") (str.to_re "%3c") (str.to_re "%3e") (str.to_re "SELECT ") (str.to_re "UPDATE ") (str.to_re "INSERT ") (str.to_re "DELETE") (str.to_re "GRANT ") (str.to_re "REVOKE") (str.to_re "UNION") (str.to_re "&lt;") (str.to_re "&gt;\u{a}")))))
(assert (not (str.in_re X (re.++ ((_ re.loop 1 1) (re.range "1" "9")) ((_ re.loop 3 3) (re.range "0" "9")) (re.opt (re.union (str.to_re " ") (str.to_re "\u{9}") (str.to_re "\u{a}") (str.to_re "\u{c}") (str.to_re "\u{d}"))) ((_ re.loop 2 2) (re.union (re.range "a" "z") (re.range "A" "Z"))) (str.to_re "\u{a}")))))
(check-sat)

(exit)
